Cost: 379
0-32-1-22-3-35-20-29-16-11-0
0-27-8-31-26-7-23-6-0
0-37-15-33-10-39-34-9-38-5-0
0-17-19-13-25-14-18-0
Cost: 379
0-27-8-31-26-7-23-6-0
0-37-15-33-39-10-34-9-38-5-0
0-32-1-22-3-35-20-29-16-11-0
0-18-14-25-13-19-17-0
Cost: 379
0-32-1-22-3-35-20-29-16-11-0
0-27-8-31-26-7-23-6-0
0-37-15-33-10-39-34-9-38-5-0
0-17-19-13-25-14-18-0
Cost: 379
0-37-15-33-10-39-34-9-38-5-0
0-17-19-13-25-14-18-0
0-11-16-29-20-35-3-22-1-32-0
0-27-8-31-26-7-23-6-0
Cost: 379
0-17-19-13-25-14-18-0
0-6-23-7-26-31-8-27-0
0-5-38-9-34-39-10-33-15-37-0
0-11-16-29-20-35-3-22-1-32-0
Cost: 379
0-32-1-22-3-35-20-29-16-11-0
0-17-19-13-25-14-18-0
0-37-15-33-39-10-34-9-38-5-0
0-6-23-7-26-31-8-27-0
Cost: 379
0-11-16-29-20-35-3-22-1-32-0
0-6-23-7-26-31-8-27-0
0-17-19-13-25-14-18-0
0-37-15-33-10-39-34-9-38-5-0
Cost: 379
0-11-16-29-20-35-3-22-1-32-0
0-6-23-7-26-31-8-27-0
0-17-19-13-25-14-18-0
0-37-15-33-10-39-34-9-38-5-0
Cost: 379
0-11-16-29-20-35-3-22-1-32-0
0-6-23-7-26-31-8-27-0
0-17-19-13-25-14-18-0
0-37-15-33-10-39-34-9-38-5-0
Cost: 379
0-11-16-29-20-35-3-22-1-32-0
0-6-23-7-26-31-8-27-0
0-17-19-13-25-14-18-0
0-37-15-33-10-39-34-9-38-5-0
Cost: 379
0-6-23-7-26-31-8-27-0
0-17-19-13-25-14-18-0
0-32-1-22-3-35-20-29-16-11-0
0-37-15-33-39-10-34-9-38-5-0
Cost: 379
0-6-23-7-26-31-8-27-0
0-17-19-13-25-14-18-0
0-32-1-22-3-35-20-29-16-11-0
0-37-15-33-39-10-34-9-38-5-0
Cost: 379
0-6-23-7-26-31-8-27-0
0-17-19-13-25-14-18-0
0-32-1-22-3-35-20-29-16-11-0
0-37-15-33-39-10-34-9-38-5-0
Cost: 379
0-17-19-13-25-14-18-0
0-32-1-22-3-35-20-29-16-11-0
0-6-23-7-26-31-8-27-0
0-37-15-33-10-39-34-9-38-5-0
Cost: 379
0-6-23-7-26-31-8-27-0
0-17-19-13-25-14-18-0
0-32-1-22-3-35-20-29-16-11-0
0-37-15-33-39-10-34-9-38-5-0
Cost: 379
0-6-23-7-26-31-8-27-0
0-17-19-13-25-14-18-0
0-32-1-22-3-35-20-29-16-11-0
0-37-15-33-39-10-34-9-38-5-0
Cost: 379
0-6-23-7-26-31-8-27-0
0-17-19-13-25-14-18-0
0-32-1-22-3-35-20-29-16-11-0
0-37-15-33-39-10-34-9-38-5-0
Cost: 379
0-5-38-9-34-10-39-33-15-37-0
0-32-1-22-3-35-20-29-16-11-0
0-17-19-13-25-14-18-0
0-27-8-31-26-7-23-6-0
Cost: 379
0-37-15-33-39-10-34-9-38-5-0
0-18-14-25-13-19-17-0
0-6-23-7-26-31-8-27-0
0-32-1-22-3-35-20-29-16-11-0
Cost: 379
0-37-15-33-39-10-34-9-38-5-0
0-18-14-25-13-19-17-0
0-6-23-7-26-31-8-27-0
0-32-1-22-3-35-20-29-16-11-0
Cost: 379
0-32-1-22-3-35-20-29-16-11-0
0-5-38-9-34-39-10-33-15-37-0
0-17-19-13-25-14-18-0
0-6-23-7-26-31-8-27-0
Cost: 379
0-32-1-22-3-35-20-29-16-11-0
0-5-38-9-34-39-10-33-15-37-0
0-17-19-13-25-14-18-0
0-6-23-7-26-31-8-27-0
Cost: 379
0-17-19-13-25-14-18-0
0-37-15-33-39-10-34-9-38-5-0
0-6-23-7-26-31-8-27-0
0-32-1-22-3-35-20-29-16-11-0
Cost: 379
0-32-1-22-3-35-20-29-16-11-0
0-5-38-9-34-39-10-33-15-37-0
0-17-19-13-25-14-18-0
0-6-23-7-26-31-8-27-0
Cost: 379
0-5-38-9-34-10-39-33-15-37-0
0-32-1-22-3-35-20-29-16-11-0
0-17-19-13-25-14-18-0
0-27-8-31-26-7-23-6-0
Cost: 379
0-37-15-33-39-10-34-9-38-5-0
0-18-14-25-13-19-17-0
0-6-23-7-26-31-8-27-0
0-32-1-22-3-35-20-29-16-11-0
Cost: 379
0-18-14-25-13-19-17-0
0-32-1-22-3-35-20-29-16-11-0
0-37-15-33-10-39-34-9-38-5-0
0-6-23-7-26-31-8-27-0
Cost: 379
0-27-8-31-26-7-23-6-0
0-18-14-25-13-19-17-0
0-32-1-22-3-35-20-29-16-11-0
0-5-38-9-34-10-39-33-15-37-0
Cost: 379
0-17-19-13-25-14-18-0
0-32-1-22-3-35-20-29-16-11-0
0-37-15-33-10-39-34-9-38-5-0
0-6-23-7-26-31-8-27-0
Cost: 379
0-37-15-33-10-39-34-9-38-5-0
0-6-23-7-26-31-8-27-0
0-17-19-13-25-14-18-0
0-11-16-29-20-35-3-22-1-32-0
Cost: 379
0-32-1-22-3-35-20-29-16-11-0
0-6-23-7-26-31-8-27-0
0-17-19-13-25-14-18-0
0-5-38-9-34-39-10-33-15-37-0
